
******************************************************************************
This program contains Ipopt, a library for large-scale nonlinear optimization.
 Ipopt is released as open source code under the Eclipse Public License (EPL).
         For more information visit http://projects.coin-or.org/Ipopt

This version of Ipopt was compiled from source code available at
    https://github.com/IDAES/Ipopt as part of the Institute for the Design of
    Advanced Energy Systems Process Systems Engineering Framework (IDAES PSE
    Framework) Copyright (c) 2018-2019. See https://github.com/IDAES/idaes-pse.

This version of Ipopt was compiled using HSL, a collection of Fortran codes
    for large-scale scientific computation.  All technical papers, sales and
    publicity material resulting from use of the HSL codes within IPOPT must
    contain the following acknowledgement:
        HSL, a collection of Fortran codes for large-scale scientific
        computation. See http://www.hsl.rl.ac.uk.
******************************************************************************

This is Ipopt version 3.13.2, running with linear solver ma27.

Number of nonzeros in equality constraint Jacobian...:      808
Number of nonzeros in inequality constraint Jacobian.:        0
Number of nonzeros in Lagrangian Hessian.............:      702

Total number of variables............................:      351
                     variables with only lower bounds:      108
                variables with lower and upper bounds:      189
                     variables with only upper bounds:        0
Total number of equality constraints.................:      350
Total number of inequality constraints...............:        0
        inequality constraints with only lower bounds:        0
   inequality constraints with lower and upper bounds:        0
        inequality constraints with only upper bounds:        0

iter    objective    inf_pr   inf_du lg(mu)  ||d||  lg(rg) alpha_du alpha_pr  ls
   0  0.0000000e+00 2.10e+00 7.77e-16  -1.0 0.00e+00    -  0.00e+00 0.00e+00   0
   1  2.9542314e-02 1.84e+00 5.70e+04  -1.0 6.42e+04    -  9.45e-02 1.87e-01h  1
   2  4.1063498e-02 1.77e+00 5.46e+04  -1.0 5.26e+04    -  1.78e-01 4.07e-02h  1
   3  4.2244237e-02 1.76e+00 5.44e+04  -1.0 1.11e+05    -  8.77e-01 3.48e-03h  1
   4  2.0227065e+00 1.13e+00 1.65e+04  -1.0 1.21e+05    -  2.98e-01 9.90e-01h  1
   5  2.3873717e+00 3.57e-01 1.01e+04  -1.0 3.11e+04    -  6.40e-01 4.95e-01h  2
   6  2.8027561e+00 2.42e-02 2.44e+03  -1.0 1.61e+04    -  9.57e-01 9.90e-01h  1
   7  2.8099559e+00 4.88e-04 4.25e+01  -1.0 3.24e+02    -  9.90e-01 9.90e-01h  1
   8  2.8371240e+00 6.80e-05 2.29e+02  -1.0 9.17e+02    -  9.90e-01 9.90e-01h  1
   9  2.8096244e+00 7.72e-05 3.68e+05  -3.8 1.02e+03    -  1.00e+00 9.04e-01f  1
iter    objective    inf_pr   inf_du lg(mu)  ||d||  lg(rg) alpha_du alpha_pr  ls
  10  2.8097143e+00 2.21e-08 6.05e+03  -3.8 3.18e+00    -  1.00e+00 1.00e+00h  1
  11  2.8097139e+00 2.48e-12 3.98e+07  -3.8 1.14e-02    -  1.00e+00 1.00e+00h  1
In iteration 11, 27 Slacks too small, adjusting variable bounds
  12  2.8097139e+00 3.03e-13 2.65e+11  -3.8 1.70e-06    -  1.00e+00 1.00e+00h  1
  13  2.8097139e+00 2.46e-13 1.43e-02  -3.8 3.26e-08    -  1.00e+00 1.00e+00H  1
  14  2.8095635e+00 2.46e-13 4.73e+07  -9.0 5.04e+00    -  1.00e+00 1.00e+00F  1
  15  2.8095635e+00 2.08e-13 2.38e+07  -9.0 3.05e-05    -  1.00e+00 5.00e-01f  2
  16  2.8095635e+00 1.49e-13 7.45e-09  -9.0 1.52e-05    -  1.00e+00 1.00e+00h  1

Number of Iterations....: 16

                                   (scaled)                 (unscaled)
Objective...............:   2.8095634875898017e+00    2.8095634875898017e+00
Dual infeasibility......:   7.4505805969238281e-09    7.4505805969238281e-09
Constraint violation....:   1.4899192990469601e-13    1.4899192990469601e-13
Complementarity.........:   9.0909099698895423e-10    9.0909099698895423e-10
Overall NLP error.......:   7.2064802049689748e-12    7.4505805969238281e-09


Number of objective function evaluations             = 25
Number of objective gradient evaluations             = 17
Number of equality constraint evaluations            = 25
Number of inequality constraint evaluations          = 0
Number of equality constraint Jacobian evaluations   = 17
Number of inequality constraint Jacobian evaluations = 0
Number of Lagrangian Hessian evaluations             = 16
Total CPU secs in IPOPT (w/o function evaluations)   =      0.039
Total CPU secs in NLP function evaluations           =      0.344

EXIT: Optimal Solution Found.
